100
128
1
8
5
4
4
44
9
31
33
47
51
35
22
4
52
8
1
59
1
31
34
20
27
16
20
9
39
7
7
17
29
20
38
1
56
12
44
29
30
53
23
61
39
1
31
61
52
59
58
53
52
41
14
37
2
17
49
51
56
10
44
44
21
52
58
24
49
1
6
55
50
46
51
12
4
7
21
49
4
50
6
22
2
50
62
42
63
28
40
36
29
38
1
54
49
32
33
35
4
42